Instancias/Instancias_pequeñas/instance6C.dat
6 

0 41 36 78 47 81 
76 0 90 81 77 47 
6 97 0 32 67 51 
18 41 26 0 45 24 
88 5 86 95 0 16 
24 27 57 71 30 0 

0 26 55 43 89 95 
40 0 99 15 86 77 
65 22 0 44 71 83 
2 100 39 0 45 31 
22 13 64 41 0 88 
67 40 9 78 69 0 
