Soluciones/instance6C.out
73651 0.00048
6
4 2 5 0 3 1 